Route #1: 20 34 2 30 29 54
Route #2: 13 8 24 59 27 45 5
Route #3: 7 61 60 25 19 26
Route #4: 16 42 41 3 48 36 49
Route #5: 52 18 1 46 43 31 38 9
Route #6: 10 39 23 4 47 62 57 51 35
Route #7: 12 28 6 37 17 53
Route #8: 56 15 44 33 11
Route #9: 21 55 32 58 40 14 50 22
Cost 1616
Time 0.505038
Tempo = 0.5174667000028421